NAME : hola//resumen/Partial_Problem_1_4.txt
COMMENT : 
TYPE : TSP
DIMENSION : 11
EDGE_WEIGHT_TYPE : GEOM
NODE_COORD_SECTION
1	30	40
2	46	10
3	51	21
4	59	15
5	58	27
6	61	33
7	62	42
8	58	48
9	57	58
10	62	63
11	63	69
EOF
